(set-logic QF_S)
(declare-fun var0 () String)
(assert (RegexIn var0 (RegexConcat (RegexStar (RegexPlus (Str2Reg "000"))) (RegexConcat (RegexPlus (RegexStar (Str2Reg "111"))) (RegexConcat (RegexPlus (RegexStar (Str2Reg "222"))) (RegexConcat (RegexPlus (RegexUnion (Str2Reg "333") (Str2Reg "44"))) (RegexConcat (RegexStar (RegexStar (Str2Reg "555"))) (RegexConcat (RegexPlus (RegexPlus (Str2Reg "66"))) (RegexConcat (RegexUnion (RegexUnion (Str2Reg "77") (Str2Reg "888")) (RegexUnion (Str2Reg "99") (Str2Reg "aa"))) (RegexConcat (RegexPlus (RegexUnion (Str2Reg "bb") (Str2Reg "c"))) (RegexConcat (RegexPlus (RegexStar (Str2Reg "ddd"))) (RegexConcat (RegexStar (RegexPlus (Str2Reg "ee"))) (RegexConcat (RegexPlus (RegexStar (Str2Reg "f"))) (RegexConcat (RegexUnion (RegexPlus (Str2Reg "g")) (RegexPlus (Str2Reg "hh"))) (RegexConcat (RegexUnion (RegexPlus (Str2Reg "ii")) (RegexPlus (Str2Reg "jj"))) (RegexConcat (RegexStar (RegexPlus (Str2Reg "kk"))) (RegexConcat (RegexPlus (RegexUnion (Str2Reg "lll") (Str2Reg "mmm"))) (RegexConcat (RegexStar (RegexUnion (Str2Reg "nnn") (Str2Reg "oo"))) (RegexConcat (RegexUnion (RegexStar (Str2Reg "p")) (RegexStar (Str2Reg "qqq"))) (RegexConcat (RegexStar (RegexStar (Str2Reg "rrr"))) (RegexConcat (RegexPlus (RegexPlus (Str2Reg "s"))) (RegexConcat (RegexPlus (RegexPlus (Str2Reg "t"))) (RegexConcat (RegexStar (RegexUnion (Str2Reg "uu") (Str2Reg "vvv"))) (RegexConcat (RegexPlus (RegexPlus (Str2Reg "ww"))) (RegexConcat (RegexStar (RegexPlus (Str2Reg "xxx"))) (RegexConcat (RegexPlus (RegexUnion (Str2Reg "yyy") (Str2Reg "z"))) (RegexConcat (RegexUnion (RegexUnion (Str2Reg "AAA") (Str2Reg "BBB")) (RegexUnion (Str2Reg "CCC") (Str2Reg "DD"))) (RegexConcat (RegexUnion (RegexPlus (Str2Reg "E")) (RegexPlus (Str2Reg "FFF"))) (RegexConcat (RegexStar (RegexStar (Str2Reg "GG"))) (RegexConcat (RegexPlus (RegexPlus (Str2Reg "HHH"))) (RegexConcat (RegexStar (RegexStar (Str2Reg "II"))) (RegexConcat (RegexPlus (RegexStar (Str2Reg "J"))) (RegexConcat (RegexStar (RegexUnion (Str2Reg "KKK") (Str2Reg "L"))) (RegexConcat (RegexPlus (RegexStar (Str2Reg "MMM"))) (RegexConcat (RegexPlus (RegexUnion (Str2Reg "NNN") (Str2Reg "OOO"))) (RegexConcat (RegexPlus (RegexStar (Str2Reg "P"))) (RegexConcat (RegexStar (RegexPlus (Str2Reg "Q"))) (RegexConcat (RegexStar (RegexPlus (Str2Reg "R"))) (RegexConcat (RegexPlus (RegexStar (Str2Reg "SSS"))) (RegexConcat (RegexPlus (RegexPlus (Str2Reg "TT"))) (RegexConcat (RegexStar (RegexPlus (Str2Reg "UU"))) (RegexConcat (RegexStar (RegexUnion (Str2Reg "V") (Str2Reg "W"))) (RegexConcat (RegexPlus (RegexStar (Str2Reg "XXX"))) (RegexConcat (RegexStar (RegexUnion (Str2Reg "YYY") (Str2Reg "Z"))) (RegexConcat (RegexPlus (RegexUnion (Str2Reg "!!!") (Str2Reg "\""))) (RegexConcat (RegexUnion (RegexStar (Str2Reg "###")) (RegexStar (Str2Reg "$"))) (RegexConcat (RegexPlus (RegexPlus (Str2Reg "%"))) (RegexConcat (RegexUnion (RegexStar (Str2Reg "&&")) (RegexStar (Str2Reg "'"))) (RegexConcat (RegexPlus (RegexUnion (Str2Reg "(((") (Str2Reg ")))"))) (RegexConcat (RegexPlus (RegexUnion (Str2Reg "**") (Str2Reg "+++"))) (RegexConcat (RegexStar (RegexStar (Str2Reg ",,,"))) (RegexConcat (RegexUnion (RegexStar (Str2Reg "---")) (RegexStar (Str2Reg "."))) (RegexConcat (RegexUnion (RegexStar (Str2Reg "///")) (RegexStar (Str2Reg ":"))) (RegexConcat (RegexUnion (RegexUnion (Str2Reg ";;;") (Str2Reg "<<")) (RegexUnion (Str2Reg "=") (Str2Reg ">>>"))) (RegexConcat (RegexStar (RegexUnion (Str2Reg "??") (Str2Reg "@@"))) (RegexConcat (RegexPlus (RegexStar (Str2Reg "["))) (RegexConcat (RegexPlus (RegexUnion (Str2Reg "\\\\") (Str2Reg "]"))) (RegexConcat (RegexStar (RegexUnion (Str2Reg "^") (Str2Reg "___"))) (RegexConcat (RegexPlus (RegexStar (Str2Reg "``"))) (RegexConcat (RegexUnion (RegexPlus (Str2Reg "{")) (RegexPlus (Str2Reg "||"))) (RegexConcat (RegexPlus (RegexUnion (Str2Reg "}}}") (Str2Reg "~~~"))) (RegexConcat (RegexUnion (RegexPlus (Str2Reg "000")) (RegexPlus (Str2Reg "11"))) (RegexConcat (RegexStar (RegexUnion (Str2Reg "222") (Str2Reg "33"))) (RegexConcat (RegexPlus (RegexUnion (Str2Reg "444") (Str2Reg "55"))) (RegexConcat (RegexPlus (RegexStar (Str2Reg "666"))) (RegexConcat (RegexUnion (RegexPlus (Str2Reg "777")) (RegexPlus (Str2Reg "88"))) (RegexConcat (RegexUnion (RegexStar (Str2Reg "9")) (RegexStar (Str2Reg "a"))) (RegexConcat (RegexStar (RegexStar (Str2Reg "bbb"))) (RegexConcat (RegexStar (RegexStar (Str2Reg "ccc"))) (RegexConcat (RegexUnion (RegexStar (Str2Reg "dd")) (RegexStar (Str2Reg "eee"))) (RegexConcat (RegexPlus (RegexStar (Str2Reg "ff"))) (RegexConcat (RegexUnion (RegexStar (Str2Reg "g")) (RegexStar (Str2Reg "hhh"))) (RegexStar (RegexUnion (Str2Reg "ii") (Str2Reg "j")))))))))))))))))))))))))))))))))))))))))))))))))))))))))))))))))))))))))))
(check-sat)